25711
113,319,430,557,603,636,830,898,907,1016,1057,1087,1143,1244,1301,1361,1376,1400,1419,1457,1587,1726,1904,2117,2121,2124,2192,2298,2401,2503,2504,2553,2567,2581,2644,2680,2744,2803,2896,3032,3173,3215,3216,3314,3364,3454,3594,3599,3760,3852,3855,3872,3958,3967,4148,4341,4392,4394,4417,4544,4671,4808,4809,4897,4929
